c "random instance"
p edges 150 3399
e 1 4
e 1 5
e 1 6
e 1 9
e 1 11
e 1 12
e 1 14
e 1 16
e 1 19
e 1 23
e 1 29
e 1 33
e 1 39
e 1 43
e 1 46
e 1 49
e 1 54
e 1 57
e 1 58
e 1 59
e 1 61
e 1 65
e 1 71
e 1 78
e 1 80
e 1 89
e 1 92
e 1 94
e 1 95
e 1 96
e 1 103
e 1 105
e 1 112
e 1 113
e 1 115
e 1 120
e 1 126
e 1 130
e 1 131
e 1 140
e 1 145
e 1 148
e 2 6
e 2 8
e 2 10
e 2 12
e 2 15
e 2 17
e 2 19
e 2 22
e 2 23
e 2 24
e 2 27
e 2 37
e 2 38
e 2 39
e 2 43
e 2 50
e 2 54
e 2 60
e 2 62
e 2 64
e 2 70
e 2 74
e 2 77
e 2 90
e 2 93
e 2 94
e 2 108
e 2 109
e 2 110
e 2 113
e 2 116
e 2 119
e 2 124
e 2 133
e 2 139
e 2 143
e 2 149
e 3 4
e 3 6
e 3 9
e 3 11
e 3 13
e 3 15
e 3 22
e 3 25
e 3 26
e 3 28
e 3 31
e 3 38
e 3 39
e 3 46
e 3 47
e 3 49
e 3 54
e 3 59
e 3 60
e 3 64
e 3 66
e 3 71
e 3 79
e 3 80
e 3 85
e 3 87
e 3 92
e 3 94
e 3 95
e 3 96
e 3 100
e 3 103
e 3 105
e 3 110
e 3 111
e 3 119
e 3 125
e 3 128
e 3 131
e 3 133
e 3 135
e 3 136
e 3 138
e 3 140
e 3 143
e 3 145
e 3 150
e 4 5
e 4 9
e 4 10
e 4 11
e 4 12
e 4 13
e 4 16
e 4 17
e 4 18
e 4 19
e 4 22
e 4 24
e 4 27
e 4 28
e 4 29
e 4 32
e 4 34
e 4 40
e 4 47
e 4 49
e 4 50
e 4 53
e 4 54
e 4 56
e 4 69
e 4 71
e 4 74
e 4 76
e 4 77
e 4 78
e 4 79
e 4 80
e 4 84
e 4 86
e 4 90
e 4 93
e 4 100
e 4 108
e 4 109
e 4 111
e 4 115
e 4 117
e 4 118
e 4 129
e 4 133
e 4 141
e 4 142
e 4 146
e 4 147
e 4 150
e 5 8
e 5 10
e 5 11
e 5 16
e 5 19
e 5 20
e 5 26
e 5 34
e 5 40
e 5 41
e 5 42
e 5 45
e 5 47
e 5 49
e 5 52
e 5 56
e 5 58
e 5 59
e 5 60
e 5 61
e 5 62
e 5 63
e 5 65
e 5 79
e 5 81
e 5 82
e 5 84
e 5 85
e 5 86
e 5 88
e 5 89
e 5 91
e 5 92
e 5 93
e 5 94
e 5 95
e 5 106
e 5 110
e 5 131
e 5 132
e 5 140
e 5 146
e 5 148
e 5 150
e 6 7
e 6 18
e 6 19
e 6 21
e 6 28
e 6 33
e 6 34
e 6 36
e 6 37
e 6 39
e 6 40
e 6 42
e 6 50
e 6 51
e 6 63
e 6 66
e 6 67
e 6 77
e 6 78
e 6 81
e 6 83
e 6 85
e 6 89
e 6 93
e 6 96
e 6 97
e 6 101
e 6 103
e 6 104
e 6 109
e 6 110
e 6 113
e 6 114
e 6 116
e 6 120
e 6 124
e 6 126
e 6 143
e 6 147
e 6 149
e 7 10
e 7 12
e 7 15
e 7 18
e 7 19
e 7 21
e 7 23
e 7 24
e 7 28
e 7 30
e 7 33
e 7 35
e 7 49
e 7 50
e 7 51
e 7 53
e 7 55
e 7 60
e 7 62
e 7 65
e 7 66
e 7 72
e 7 73
e 7 76
e 7 79
e 7 80
e 7 81
e 7 82
e 7 91
e 7 93
e 7 97
e 7 101
e 7 106
e 7 107
e 7 109
e 7 110
e 7 112
e 7 113
e 7 115
e 7 117
e 7 126
e 7 128
e 7 130
e 7 131
e 7 134
e 7 135
e 7 139
e 7 141
e 7 142
e 8 14
e 8 16
e 8 17
e 8 23
e 8 29
e 8 30
e 8 32
e 8 33
e 8 34
e 8 37
e 8 41
e 8 45
e 8 48
e 8 49
e 8 50
e 8 52
e 8 55
e 8 56
e 8 58
e 8 61
e 8 63
e 8 65
e 8 66
e 8 67
e 8 69
e 8 70
e 8 72
e 8 73
e 8 74
e 8 78
e 8 79
e 8 80
e 8 83
e 8 85
e 8 89
e 8 90
e 8 92
e 8 94
e 8 97
e 8 101
e 8 102
e 8 103
e 8 114
e 8 115
e 8 116
e 8 124
e 8 125
e 8 126
e 8 127
e 8 128
e 8 131
e 8 132
e 8 137
e 8 142
e 8 145
e 8 146
e 8 147
e 8 149
e 9 11
e 9 12
e 9 13
e 9 23
e 9 24
e 9 25
e 9 27
e 9 33
e 9 34
e 9 35
e 9 36
e 9 37
e 9 38
e 9 39
e 9 41
e 9 46
e 9 47
e 9 52
e 9 53
e 9 59
e 9 62
e 9 63
e 9 70
e 9 71
e 9 75
e 9 76
e 9 87
e 9 88
e 9 90
e 9 92
e 9 96
e 9 106
e 9 108
e 9 110
e 9 112
e 9 113
e 9 119
e 9 121
e 9 123
e 9 124
e 9 125
e 9 129
e 9 130
e 9 131
e 9 134
e 9 137
e 9 139
e 9 140
e 10 16
e 10 20
e 10 21
e 10 24
e 10 30
e 10 31
e 10 32
e 10 33
e 10 35
e 10 36
e 10 37
e 10 38
e 10 40
e 10 41
e 10 44
e 10 46
e 10 48
e 10 49
e 10 50
e 10 53
e 10 62
e 10 64
e 10 65
e 10 67
e 10 68
e 10 69
e 10 70
e 10 73
e 10 74
e 10 77
e 10 78
e 10 79
e 10 83
e 10 85
e 10 86
e 10 91
e 10 96
e 10 97
e 10 98
e 10 100
e 10 104
e 10 107
e 10 112
e 10 117
e 10 120
e 10 124
e 10 127
e 10 131
e 10 133
e 10 134
e 10 135
e 10 140
e 10 145
e 10 146
e 10 149
e 10 150
e 11 14
e 11 17
e 11 19
e 11 28
e 11 31
e 11 33
e 11 35
e 11 40
e 11 47
e 11 49
e 11 51
e 11 59
e 11 65
e 11 66
e 11 76
e 11 77
e 11 81
e 11 82
e 11 87
e 11 88
e 11 94
e 11 95
e 11 99
e 11 106
e 11 107
e 11 108
e 11 110
e 11 117
e 11 118
e 11 121
e 11 124
e 11 129
e 11 131
e 11 133
e 11 137
e 11 140
e 12 13
e 12 18
e 12 20
e 12 22
e 12 23
e 12 32
e 12 39
e 12 42
e 12 45
e 12 51
e 12 52
e 12 58
e 12 59
e 12 61
e 12 63
e 12 64
e 12 65
e 12 68
e 12 70
e 12 75
e 12 77
e 12 79
e 12 81
e 12 83
e 12 91
e 12 93
e 12 94
e 12 101
e 12 104
e 12 109
e 12 110
e 12 111
e 12 112
e 12 116
e 12 118
e 12 122
e 12 129
e 12 131
e 12 142
e 12 143
e 12 146
e 12 147
e 12 150
e 13 16
e 13 23
e 13 24
e 13 25
e 13 26
e 13 29
e 13 30
e 13 31
e 13 33
e 13 34
e 13 37
e 13 40
e 13 42
e 13 44
e 13 48
e 13 55
e 13 58
e 13 59
e 13 61
e 13 67
e 13 73
e 13 76
e 13 77
e 13 87
e 13 88
e 13 93
e 13 102
e 13 105
e 13 107
e 13 111
e 13 112
e 13 127
e 13 133
e 13 140
e 13 146
e 14 17
e 14 23
e 14 26
e 14 29
e 14 31
e 14 34
e 14 36
e 14 37
e 14 38
e 14 46
e 14 47
e 14 54
e 14 55
e 14 56
e 14 58
e 14 61
e 14 62
e 14 64
e 14 65
e 14 69
e 14 73
e 14 74
e 14 76
e 14 77
e 14 78
e 14 83
e 14 85
e 14 88
e 14 94
e 14 96
e 14 97
e 14 98
e 14 101
e 14 103
e 14 104
e 14 105
e 14 106
e 14 108
e 14 114
e 14 118
e 14 123
e 14 125
e 14 127
e 14 132
e 14 135
e 14 136
e 14 137
e 14 138
e 14 140
e 14 141
e 14 143
e 14 148
e 15 17
e 15 18
e 15 19
e 15 25
e 15 27
e 15 28
e 15 30
e 15 34
e 15 37
e 15 42
e 15 44
e 15 47
e 15 48
e 15 54
e 15 55
e 15 58
e 15 62
e 15 64
e 15 68
e 15 69
e 15 70
e 15 71
e 15 73
e 15 76
e 15 79
e 15 83
e 15 95
e 15 96
e 15 101
e 15 103
e 15 110
e 15 113
e 15 124
e 15 135
e 15 136
e 15 138
e 15 143
e 15 146
e 15 150
e 16 22
e 16 25
e 16 27
e 16 29
e 16 35
e 16 36
e 16 38
e 16 44
e 16 50
e 16 76
e 16 80
e 16 84
e 16 85
e 16 87
e 16 92
e 16 103
e 16 106
e 16 108
e 16 111
e 16 113
e 16 121
e 16 124
e 16 132
e 16 137
e 16 140
e 16 142
e 16 148
e 17 18
e 17 19
e 17 20
e 17 27
e 17 28
e 17 37
e 17 39
e 17 49
e 17 55
e 17 61
e 17 68
e 17 72
e 17 79
e 17 89
e 17 91
e 17 94
e 17 97
e 17 98
e 17 100
e 17 109
e 17 110
e 17 119
e 17 120
e 17 125
e 17 130
e 17 132
e 17 133
e 17 134
e 17 136
e 17 137
e 17 141
e 17 142
e 17 143
e 18 19
e 18 23
e 18 28
e 18 29
e 18 33
e 18 35
e 18 36
e 18 38
e 18 40
e 18 41
e 18 43
e 18 45
e 18 47
e 18 49
e 18 51
e 18 52
e 18 54
e 18 55
e 18 56
e 18 58
e 18 65
e 18 71
e 18 72
e 18 73
e 18 74
e 18 76
e 18 79
e 18 84
e 18 85
e 18 86
e 18 89
e 18 90
e 18 92
e 18 94
e 18 98
e 18 104
e 18 105
e 18 110
e 18 111
e 18 117
e 18 118
e 18 123
e 18 126
e 18 139
e 18 145
e 19 24
e 19 26
e 19 27
e 19 29
e 19 32
e 19 37
e 19 47
e 19 59
e 19 60
e 19 64
e 19 65
e 19 66
e 19 73
e 19 74
e 19 79
e 19 81
e 19 91
e 19 92
e 19 94
e 19 100
e 19 102
e 19 104
e 19 105
e 19 107
e 19 109
e 19 111
e 19 112
e 19 116
e 19 119
e 19 122
e 19 129
e 19 131
e 19 134
e 19 137
e 19 138
e 19 139
e 19 140
e 19 147
e 19 149
e 20 22
e 20 23
e 20 30
e 20 42
e 20 44
e 20 47
e 20 49
e 20 50
e 20 57
e 20 67
e 20 69
e 20 70
e 20 74
e 20 75
e 20 77
e 20 79
e 20 85
e 20 86
e 20 89
e 20 91
e 20 97
e 20 100
e 20 103
e 20 112
e 20 113
e 20 123
e 20 126
e 20 127
e 20 128
e 20 129
e 20 130
e 20 136
e 20 141
e 20 143
e 20 147
e 21 24
e 21 25
e 21 27
e 21 29
e 21 33
e 21 34
e 21 36
e 21 38
e 21 41
e 21 52
e 21 63
e 21 65
e 21 77
e 21 79
e 21 83
e 21 86
e 21 99
e 21 105
e 21 110
e 21 111
e 21 112
e 21 114
e 21 115
e 21 117
e 21 119
e 21 123
e 21 124
e 21 126
e 21 135
e 21 137
e 21 139
e 21 140
e 21 141
e 21 142
e 21 150
e 22 23
e 22 34
e 22 36
e 22 39
e 22 40
e 22 41
e 22 48
e 22 56
e 22 57
e 22 58
e 22 59
e 22 61
e 22 66
e 22 71
e 22 75
e 22 78
e 22 80
e 22 83
e 22 84
e 22 85
e 22 86
e 22 87
e 22 93
e 22 95
e 22 97
e 22 99
e 22 108
e 22 110
e 22 113
e 22 116
e 22 118
e 22 121
e 22 124
e 22 130
e 22 134
e 22 140
e 22 143
e 22 145
e 22 147
e 22 148
e 22 149
e 22 150
e 23 29
e 23 31
e 23 36
e 23 39
e 23 41
e 23 47
e 23 52
e 23 56
e 23 59
e 23 61
e 23 67
e 23 71
e 23 77
e 23 80
e 23 81
e 23 82
e 23 89
e 23 91
e 23 93
e 23 94
e 23 95
e 23 98
e 23 99
e 23 111
e 23 121
e 23 123
e 23 124
e 23 127
e 23 128
e 23 129
e 23 130
e 23 131
e 23 133
e 23 135
e 23 136
e 23 140
e 23 141
e 23 143
e 23 145
e 23 150
e 24 25
e 24 30
e 24 32
e 24 33
e 24 34
e 24 35
e 24 36
e 24 42
e 24 44
e 24 46
e 24 52
e 24 53
e 24 56
e 24 58
e 24 61
e 24 65
e 24 67
e 24 69
e 24 72
e 24 79
e 24 80
e 24 82
e 24 92
e 24 93
e 24 98
e 24 101
e 24 104
e 24 106
e 24 107
e 24 117
e 24 118
e 24 119
e 24 128
e 24 129
e 24 130
e 24 131
e 24 133
e 24 138
e 24 139
e 24 141
e 24 142
e 24 143
e 24 147
e 24 149
e 24 150
e 25 29
e 25 31
e 25 39
e 25 41
e 25 42
e 25 45
e 25 48
e 25 49
e 25 50
e 25 56
e 25 61
e 25 65
e 25 66
e 25 85
e 25 88
e 25 90
e 25 93
e 25 107
e 25 108
e 25 110
e 25 114
e 25 117
e 25 118
e 25 120
e 25 121
e 25 126
e 25 133
e 25 134
e 25 136
e 25 138
e 25 143
e 25 145
e 25 146
e 25 149
e 26 27
e 26 28
e 26 34
e 26 35
e 26 36
e 26 37
e 26 38
e 26 39
e 26 40
e 26 45
e 26 46
e 26 56
e 26 60
e 26 64
e 26 66
e 26 71
e 26 72
e 26 78
e 26 85
e 26 87
e 26 88
e 26 98
e 26 105
e 26 108
e 26 110
e 26 112
e 26 115
e 26 117
e 26 118
e 26 124
e 26 128
e 26 131
e 26 137
e 26 145
e 26 149
e 27 34
e 27 36
e 27 39
e 27 42
e 27 43
e 27 47
e 27 51
e 27 53
e 27 55
e 27 56
e 27 57
e 27 58
e 27 64
e 27 68
e 27 69
e 27 72
e 27 78
e 27 80
e 27 83
e 27 84
e 27 85
e 27 91
e 27 93
e 27 102
e 27 103
e 27 105
e 27 114
e 27 115
e 27 117
e 27 120
e 27 121
e 27 127
e 27 131
e 27 134
e 27 139
e 27 141
e 27 142
e 27 143
e 28 38
e 28 41
e 28 43
e 28 54
e 28 58
e 28 61
e 28 68
e 28 70
e 28 75
e 28 76
e 28 78
e 28 79
e 28 81
e 28 82
e 28 84
e 28 90
e 28 91
e 28 92
e 28 93
e 28 96
e 28 101
e 28 106
e 28 107
e 28 112
e 28 115
e 28 116
e 28 118
e 28 120
e 28 123
e 28 124
e 28 125
e 28 130
e 28 133
e 28 136
e 28 143
e 28 147
e 28 148
e 29 35
e 29 41
e 29 45
e 29 50
e 29 51
e 29 58
e 29 60
e 29 61
e 29 62
e 29 64
e 29 68
e 29 73
e 29 87
e 29 91
e 29 93
e 29 96
e 29 98
e 29 103
e 29 106
e 29 107
e 29 110
e 29 111
e 29 113
e 29 119
e 29 132
e 29 142
e 29 145
e 29 148
e 29 150
e 30 34
e 30 36
e 30 37
e 30 39
e 30 42
e 30 49
e 30 50
e 30 52
e 30 54
e 30 58
e 30 63
e 30 65
e 30 66
e 30 81
e 30 84
e 30 86
e 30 87
e 30 93
e 30 97
e 30 98
e 30 111
e 30 115
e 30 117
e 30 118
e 30 124
e 30 127
e 30 128
e 30 132
e 30 134
e 30 137
e 30 138
e 30 139
e 30 141
e 31 34
e 31 35
e 31 40
e 31 41
e 31 44
e 31 46
e 31 52
e 31 58
e 31 61
e 31 63
e 31 65
e 31 67
e 31 75
e 31 77
e 31 78
e 31 80
e 31 83
e 31 84
e 31 85
e 31 86
e 31 91
e 31 92
e 31 102
e 31 105
e 31 108
e 31 109
e 31 112
e 31 115
e 31 119
e 31 120
e 31 121
e 31 122
e 31 125
e 31 131
e 31 147
e 31 148
e 32 33
e 32 36
e 32 38
e 32 42
e 32 43
e 32 45
e 32 50
e 32 58
e 32 63
e 32 64
e 32 67
e 32 68
e 32 69
e 32 73
e 32 78
e 32 86
e 32 93
e 32 95
e 32 97
e 32 102
e 32 103
e 32 106
e 32 109
e 32 110
e 32 111
e 32 118
e 32 121
e 32 127
e 32 134
e 32 136
e 32 141
e 32 144
e 32 145
e 32 149
e 33 34
e 33 35
e 33 40
e 33 43
e 33 44
e 33 54
e 33 58
e 33 60
e 33 64
e 33 67
e 33 68
e 33 69
e 33 70
e 33 71
e 33 73
e 33 80
e 33 84
e 33 88
e 33 95
e 33 96
e 33 100
e 33 104
e 33 111
e 33 112
e 33 120
e 33 127
e 33 128
e 33 132
e 33 139
e 33 144
e 33 146
e 33 147
e 33 148
e 34 35
e 34 40
e 34 41
e 34 42
e 34 45
e 34 51
e 34 52
e 34 59
e 34 61
e 34 63
e 34 66
e 34 76
e 34 79
e 34 81
e 34 83
e 34 96
e 34 102
e 34 103
e 34 105
e 34 106
e 34 109
e 34 110
e 34 113
e 34 114
e 34 115
e 34 119
e 34 129
e 34 130
e 34 133
e 34 135
e 34 136
e 34 137
e 34 142
e 34 145
e 34 146
e 34 147
e 35 36
e 35 40
e 35 44
e 35 52
e 35 62
e 35 63
e 35 69
e 35 71
e 35 76
e 35 77
e 35 82
e 35 85
e 35 88
e 35 89
e 35 94
e 35 97
e 35 98
e 35 102
e 35 103
e 35 105
e 35 111
e 35 112
e 35 113
e 35 115
e 35 116
e 35 122
e 35 123
e 35 124
e 35 127
e 35 129
e 35 131
e 35 132
e 35 135
e 35 139
e 35 143
e 35 144
e 35 145
e 36 37
e 36 39
e 36 40
e 36 43
e 36 44
e 36 45
e 36 46
e 36 47
e 36 49
e 36 50
e 36 57
e 36 61
e 36 62
e 36 63
e 36 66
e 36 67
e 36 71
e 36 72
e 36 77
e 36 79
e 36 86
e 36 87
e 36 89
e 36 91
e 36 97
e 36 100
e 36 102
e 36 104
e 36 110
e 36 112
e 36 114
e 36 115
e 36 117
e 36 123
e 36 124
e 36 125
e 36 126
e 36 127
e 36 128
e 36 132
e 36 136
e 36 137
e 36 138
e 36 141
e 36 143
e 36 144
e 37 43
e 37 46
e 37 48
e 37 54
e 37 62
e 37 64
e 37 65
e 37 68
e 37 71
e 37 72
e 37 77
e 37 82
e 37 87
e 37 88
e 37 89
e 37 90
e 37 97
e 37 100
e 37 105
e 37 106
e 37 108
e 37 114
e 37 119
e 37 124
e 37 126
e 37 129
e 37 132
e 37 134
e 37 142
e 37 144
e 37 147
e 37 148
e 37 149
e 38 50
e 38 52
e 38 53
e 38 55
e 38 58
e 38 60
e 38 62
e 38 65
e 38 66
e 38 68
e 38 71
e 38 75
e 38 85
e 38 92
e 38 94
e 38 104
e 38 108
e 38 109
e 38 110
e 38 114
e 38 125
e 38 126
e 38 128
e 38 141
e 38 150
e 39 41
e 39 45
e 39 51
e 39 59
e 39 65
e 39 68
e 39 71
e 39 72
e 39 80
e 39 85
e 39 93
e 39 94
e 39 105
e 39 108
e 39 109
e 39 112
e 39 114
e 39 117
e 39 121
e 39 129
e 39 130
e 39 132
e 39 142
e 39 146
e 40 43
e 40 50
e 40 53
e 40 56
e 40 57
e 40 60
e 40 63
e 40 64
e 40 65
e 40 66
e 40 71
e 40 74
e 40 76
e 40 78
e 40 79
e 40 83
e 40 95
e 40 96
e 40 97
e 40 105
e 40 108
e 40 110
e 40 113
e 40 114
e 40 118
e 40 120
e 40 124
e 40 128
e 40 131
e 40 135
e 40 140
e 40 142
e 40 143
e 40 145
e 40 149
e 41 42
e 41 43
e 41 45
e 41 46
e 41 48
e 41 49
e 41 52
e 41 57
e 41 59
e 41 61
e 41 67
e 41 68
e 41 71
e 41 72
e 41 73
e 41 75
e 41 76
e 41 83
e 41 88
e 41 90
e 41 91
e 41 92
e 41 94
e 41 101
e 41 103
e 41 108
e 41 110
e 41 114
e 41 115
e 41 126
e 41 127
e 41 130
e 41 131
e 41 132
e 41 135
e 41 136
e 41 138
e 41 142
e 41 143
e 41 148
e 42 43
e 42 46
e 42 48
e 42 49
e 42 53
e 42 54
e 42 55
e 42 61
e 42 64
e 42 69
e 42 73
e 42 75
e 42 80
e 42 81
e 42 85
e 42 89
e 42 92
e 42 94
e 42 95
e 42 102
e 42 105
e 42 108
e 42 111
e 42 115
e 42 118
e 42 123
e 42 126
e 42 139
e 42 141
e 43 45
e 43 47
e 43 48
e 43 50
e 43 51
e 43 52
e 43 57
e 43 59
e 43 64
e 43 74
e 43 75
e 43 78
e 43 79
e 43 81
e 43 84
e 43 85
e 43 88
e 43 92
e 43 93
e 43 95
e 43 100
e 43 110
e 43 113
e 43 115
e 43 116
e 43 117
e 43 119
e 43 120
e 43 121
e 43 130
e 43 134
e 43 136
e 43 138
e 43 143
e 43 145
e 43 147
e 44 48
e 44 55
e 44 57
e 44 60
e 44 63
e 44 69
e 44 70
e 44 72
e 44 75
e 44 76
e 44 80
e 44 83
e 44 86
e 44 87
e 44 94
e 44 99
e 44 113
e 44 115
e 44 118
e 44 122
e 44 124
e 44 126
e 44 128
e 44 129
e 44 134
e 44 140
e 44 146
e 44 150
e 45 46
e 45 55
e 45 57
e 45 58
e 45 59
e 45 69
e 45 76
e 45 77
e 45 79
e 45 84
e 45 86
e 45 87
e 45 94
e 45 95
e 45 96
e 45 100
e 45 102
e 45 105
e 45 106
e 45 108
e 45 110
e 45 111
e 45 114
e 45 122
e 45 124
e 45 125
e 45 131
e 45 132
e 45 135
e 45 145
e 45 150
e 46 47
e 46 49
e 46 51
e 46 58
e 46 60
e 46 61
e 46 62
e 46 66
e 46 76
e 46 78
e 46 80
e 46 82
e 46 85
e 46 92
e 46 98
e 46 103
e 46 104
e 46 105
e 46 110
e 46 112
e 46 117
e 46 120
e 46 121
e 46 129
e 46 130
e 46 133
e 46 141
e 46 147
e 46 148
e 47 49
e 47 53
e 47 56
e 47 61
e 47 66
e 47 68
e 47 73
e 47 76
e 47 78
e 47 82
e 47 88
e 47 95
e 47 104
e 47 107
e 47 111
e 47 121
e 47 126
e 47 127
e 47 128
e 47 132
e 47 135
e 47 140
e 47 143
e 47 144
e 48 49
e 48 58
e 48 59
e 48 60
e 48 61
e 48 62
e 48 66
e 48 67
e 48 71
e 48 72
e 48 77
e 48 78
e 48 82
e 48 85
e 48 87
e 48 91
e 48 94
e 48 96
e 48 99
e 48 104
e 48 113
e 48 114
e 48 115
e 48 121
e 48 122
e 48 123
e 48 131
e 48 133
e 48 134
e 48 137
e 48 139
e 48 143
e 48 145
e 48 146
e 49 51
e 49 52
e 49 64
e 49 66
e 49 68
e 49 69
e 49 72
e 49 73
e 49 81
e 49 87
e 49 89
e 49 90
e 49 94
e 49 95
e 49 99
e 49 101
e 49 103
e 49 107
e 49 108
e 49 109
e 49 111
e 49 116
e 49 120
e 49 122
e 49 123
e 49 131
e 49 138
e 49 141
e 49 148
e 50 52
e 50 53
e 50 56
e 50 59
e 50 65
e 50 67
e 50 72
e 50 75
e 50 78
e 50 80
e 50 81
e 50 84
e 50 88
e 50 91
e 50 95
e 50 97
e 50 98
e 50 106
e 50 109
e 50 116
e 50 117
e 50 120
e 50 121
e 50 123
e 50 134
e 50 138
e 50 143
e 50 145
e 50 149
e 51 52
e 51 55
e 51 57
e 51 58
e 51 59
e 51 60
e 51 65
e 51 66
e 51 69
e 51 71
e 51 73
e 51 80
e 51 81
e 51 82
e 51 85
e 51 87
e 51 92
e 51 96
e 51 97
e 51 99
e 51 101
e 51 104
e 51 111
e 51 113
e 51 114
e 51 116
e 51 117
e 51 119
e 51 121
e 51 132
e 51 133
e 51 135
e 51 137
e 51 139
e 51 144
e 51 146
e 52 54
e 52 57
e 52 61
e 52 67
e 52 75
e 52 78
e 52 82
e 52 83
e 52 95
e 52 97
e 52 98
e 52 99
e 52 104
e 52 107
e 52 110
e 52 114
e 52 116
e 52 117
e 52 121
e 52 124
e 52 125
e 52 128
e 52 130
e 52 134
e 52 137
e 52 138
e 52 141
e 52 148
e 53 54
e 53 59
e 53 62
e 53 64
e 53 67
e 53 68
e 53 69
e 53 73
e 53 79
e 53 81
e 53 82
e 53 83
e 53 88
e 53 89
e 53 91
e 53 114
e 53 115
e 53 117
e 53 123
e 53 126
e 53 128
e 53 129
e 53 131
e 53 139
e 53 140
e 53 144
e 53 148
e 54 59
e 54 61
e 54 73
e 54 74
e 54 75
e 54 78
e 54 81
e 54 83
e 54 85
e 54 87
e 54 88
e 54 89
e 54 91
e 54 92
e 54 94
e 54 97
e 54 100
e 54 101
e 54 106
e 54 107
e 54 113
e 54 115
e 54 117
e 54 118
e 54 120
e 54 125
e 54 128
e 54 131
e 54 132
e 54 133
e 54 140
e 54 141
e 54 142
e 54 145
e 55 58
e 55 66
e 55 68
e 55 72
e 55 79
e 55 82
e 55 83
e 55 85
e 55 93
e 55 96
e 55 101
e 55 102
e 55 103
e 55 107
e 55 113
e 55 114
e 55 115
e 55 116
e 55 125
e 55 126
e 55 129
e 55 135
e 55 136
e 55 138
e 55 143
e 55 147
e 55 148
e 56 57
e 56 59
e 56 64
e 56 65
e 56 66
e 56 68
e 56 72
e 56 75
e 56 76
e 56 80
e 56 82
e 56 86
e 56 87
e 56 88
e 56 89
e 56 96
e 56 102
e 56 104
e 56 105
e 56 111
e 56 115
e 56 120
e 56 125
e 56 126
e 56 131
e 56 134
e 56 136
e 56 137
e 56 139
e 56 141
e 56 143
e 56 144
e 56 146
e 57 60
e 57 62
e 57 65
e 57 69
e 57 70
e 57 72
e 57 75
e 57 79
e 57 83
e 57 89
e 57 92
e 57 96
e 57 97
e 57 98
e 57 99
e 57 102
e 57 103
e 57 106
e 57 108
e 57 112
e 57 119
e 57 125
e 57 126
e 57 127
e 57 129
e 57 133
e 57 134
e 57 137
e 57 145
e 57 146
e 57 147
e 57 150
e 58 59
e 58 61
e 58 64
e 58 69
e 58 72
e 58 73
e 58 74
e 58 78
e 58 82
e 58 88
e 58 91
e 58 95
e 58 100
e 58 105
e 58 107
e 58 109
e 58 114
e 58 123
e 58 124
e 58 127
e 58 128
e 58 140
e 58 142
e 58 146
e 59 60
e 59 61
e 59 69
e 59 74
e 59 76
e 59 79
e 59 80
e 59 81
e 59 92
e 59 94
e 59 98
e 59 99
e 59 101
e 59 107
e 59 108
e 59 110
e 59 113
e 59 114
e 59 120
e 59 121
e 59 122
e 59 123
e 59 134
e 59 140
e 59 144
e 59 145
e 59 149
e 60 61
e 60 62
e 60 64
e 60 67
e 60 68
e 60 71
e 60 72
e 60 75
e 60 78
e 60 86
e 60 89
e 60 96
e 60 98
e 60 112
e 60 130
e 60 138
e 60 143
e 60 144
e 60 146
e 60 150
e 61 62
e 61 63
e 61 64
e 61 70
e 61 73
e 61 74
e 61 78
e 61 79
e 61 80
e 61 83
e 61 86
e 61 89
e 61 90
e 61 92
e 61 93
e 61 98
e 61 105
e 61 109
e 61 127
e 61 132
e 61 133
e 61 134
e 61 141
e 61 144
e 61 146
e 61 148
e 62 63
e 62 64
e 62 65
e 62 67
e 62 68
e 62 69
e 62 72
e 62 73
e 62 75
e 62 78
e 62 80
e 62 85
e 62 86
e 62 93
e 62 95
e 62 97
e 62 98
e 62 101
e 62 102
e 62 105
e 62 110
e 62 117
e 62 119
e 62 123
e 62 127
e 62 128
e 62 131
e 62 132
e 62 136
e 62 137
e 62 138
e 63 65
e 63 68
e 63 72
e 63 74
e 63 75
e 63 80
e 63 81
e 63 82
e 63 87
e 63 95
e 63 106
e 63 107
e 63 111
e 63 115
e 63 124
e 63 128
e 63 130
e 63 133
e 63 134
e 63 135
e 63 145
e 63 149
e 64 71
e 64 78
e 64 96
e 64 100
e 64 101
e 64 102
e 64 104
e 64 112
e 64 113
e 64 114
e 64 118
e 64 120
e 64 124
e 64 126
e 64 127
e 64 128
e 64 130
e 64 131
e 64 133
e 64 140
e 64 142
e 64 143
e 64 146
e 64 149
e 64 150
e 65 67
e 65 90
e 65 91
e 65 95
e 65 97
e 65 101
e 65 104
e 65 110
e 65 111
e 65 114
e 65 115
e 65 117
e 65 119
e 65 120
e 65 124
e 65 128
e 65 129
e 65 134
e 65 136
e 65 139
e 65 140
e 65 141
e 65 142
e 65 148
e 65 149
e 66 68
e 66 69
e 66 71
e 66 73
e 66 76
e 66 78
e 66 79
e 66 80
e 66 84
e 66 89
e 66 90
e 66 94
e 66 98
e 66 99
e 66 102
e 66 103
e 66 111
e 66 112
e 66 117
e 66 119
e 66 121
e 66 124
e 66 125
e 66 126
e 66 130
e 66 132
e 66 136
e 66 142
e 66 143
e 66 144
e 66 146
e 66 148
e 66 149
e 67 69
e 67 74
e 67 81
e 67 82
e 67 83
e 67 88
e 67 95
e 67 97
e 67 101
e 67 103
e 67 108
e 67 109
e 67 112
e 67 120
e 67 122
e 67 125
e 67 130
e 67 131
e 67 134
e 67 137
e 67 142
e 67 143
e 67 145
e 67 146
e 67 148
e 67 150
e 68 73
e 68 74
e 68 75
e 68 79
e 68 80
e 68 81
e 68 85
e 68 86
e 68 89
e 68 91
e 68 92
e 68 93
e 68 98
e 68 99
e 68 102
e 68 103
e 68 104
e 68 110
e 68 111
e 68 113
e 68 118
e 68 119
e 68 121
e 68 123
e 68 124
e 68 125
e 68 128
e 68 129
e 68 134
e 68 136
e 68 137
e 68 138
e 68 142
e 68 143
e 68 144
e 68 145
e 68 147
e 68 148
e 69 71
e 69 72
e 69 73
e 69 78
e 69 79
e 69 81
e 69 84
e 69 85
e 69 94
e 69 103
e 69 106
e 69 107
e 69 110
e 69 112
e 69 118
e 69 123
e 69 129
e 69 138
e 69 140
e 69 145
e 69 146
e 69 148
e 70 74
e 70 75
e 70 76
e 70 81
e 70 85
e 70 99
e 70 102
e 70 105
e 70 107
e 70 108
e 70 109
e 70 113
e 70 118
e 70 120
e 70 129
e 70 131
e 70 133
e 70 134
e 70 148
e 71 73
e 71 74
e 71 75
e 71 81
e 71 82
e 71 86
e 71 87
e 71 88
e 71 91
e 71 97
e 71 99
e 71 100
e 71 101
e 71 102
e 71 104
e 71 120
e 71 122
e 71 127
e 71 130
e 71 131
e 71 141
e 71 142
e 71 148
e 71 149
e 72 80
e 72 83
e 72 88
e 72 96
e 72 98
e 72 100
e 72 101
e 72 102
e 72 103
e 72 104
e 72 105
e 72 109
e 72 110
e 72 111
e 72 115
e 72 119
e 72 122
e 72 123
e 72 136
e 72 137
e 72 138
e 72 146
e 73 77
e 73 80
e 73 81
e 73 83
e 73 88
e 73 90
e 73 92
e 73 96
e 73 98
e 73 102
e 73 108
e 73 110
e 73 113
e 73 115
e 73 120
e 73 129
e 73 131
e 73 134
e 73 136
e 73 140
e 73 146
e 74 78
e 74 90
e 74 91
e 74 95
e 74 104
e 74 115
e 74 119
e 74 120
e 74 126
e 74 128
e 75 77
e 75 78
e 75 80
e 75 81
e 75 82
e 75 87
e 75 88
e 75 89
e 75 90
e 75 91
e 75 93
e 75 100
e 75 101
e 75 102
e 75 106
e 75 107
e 75 109
e 75 110
e 75 115
e 75 117
e 75 124
e 75 128
e 75 129
e 75 131
e 75 137
e 75 142
e 75 144
e 75 147
e 75 150
e 76 77
e 76 79
e 76 81
e 76 82
e 76 84
e 76 85
e 76 91
e 76 93
e 76 98
e 76 100
e 76 101
e 76 106
e 76 108
e 76 111
e 76 125
e 76 129
e 76 140
e 76 142
e 76 146
e 76 148
e 76 149
e 76 150
e 77 81
e 77 84
e 77 85
e 77 88
e 77 89
e 77 90
e 77 98
e 77 100
e 77 101
e 77 102
e 77 107
e 77 108
e 77 110
e 77 115
e 77 119
e 77 121
e 77 123
e 77 127
e 77 128
e 77 129
e 77 139
e 77 140
e 77 143
e 77 145
e 78 82
e 78 83
e 78 85
e 78 86
e 78 90
e 78 96
e 78 97
e 78 99
e 78 100
e 78 109
e 78 112
e 78 113
e 78 116
e 78 120
e 78 123
e 78 126
e 78 127
e 78 130
e 78 131
e 78 135
e 78 136
e 78 140
e 78 146
e 79 82
e 79 83
e 79 90
e 79 91
e 79 94
e 79 99
e 79 104
e 79 106
e 79 110
e 79 112
e 79 117
e 79 119
e 79 120
e 79 132
e 79 133
e 79 137
e 79 141
e 79 142
e 79 148
e 79 149
e 80 81
e 80 82
e 80 84
e 80 89
e 80 94
e 80 97
e 80 99
e 80 104
e 80 107
e 80 114
e 80 118
e 80 123
e 80 127
e 80 137
e 80 140
e 80 144
e 80 145
e 80 146
e 80 147
e 80 149
e 81 87
e 81 89
e 81 92
e 81 95
e 81 96
e 81 99
e 81 101
e 81 103
e 81 113
e 81 114
e 81 116
e 81 118
e 81 120
e 81 121
e 81 124
e 81 128
e 81 130
e 81 131
e 81 137
e 81 145
e 81 149
e 82 83
e 82 85
e 82 87
e 82 90
e 82 94
e 82 101
e 82 102
e 82 104
e 82 106
e 82 108
e 82 110
e 82 117
e 82 121
e 82 122
e 82 128
e 82 130
e 82 133
e 82 139
e 82 146
e 82 147
e 82 150
e 83 85
e 83 87
e 83 88
e 83 89
e 83 94
e 83 97
e 83 98
e 83 99
e 83 101
e 83 102
e 83 106
e 83 107
e 83 117
e 83 118
e 83 124
e 83 126
e 83 136
e 83 141
e 83 143
e 83 149
e 84 87
e 84 98
e 84 101
e 84 104
e 84 105
e 84 110
e 84 111
e 84 112
e 84 113
e 84 115
e 84 134
e 84 136
e 84 140
e 84 142
e 84 145
e 84 146
e 84 149
e 84 150
e 85 87
e 85 88
e 85 101
e 85 103
e 85 105
e 85 106
e 85 107
e 85 110
e 85 115
e 85 116
e 85 117
e 85 118
e 85 125
e 85 126
e 85 127
e 85 128
e 85 131
e 85 133
e 85 134
e 85 137
e 85 138
e 85 140
e 85 144
e 85 146
e 86 88
e 86 94
e 86 106
e 86 109
e 86 112
e 86 114
e 86 115
e 86 118
e 86 122
e 86 126
e 86 134
e 86 137
e 86 140
e 86 144
e 87 88
e 87 91
e 87 93
e 87 95
e 87 97
e 87 101
e 87 107
e 87 110
e 87 112
e 87 113
e 87 119
e 87 124
e 87 129
e 87 133
e 87 135
e 87 136
e 87 138
e 87 139
e 87 144
e 87 147
e 88 90
e 88 91
e 88 92
e 88 95
e 88 96
e 88 99
e 88 102
e 88 105
e 88 106
e 88 107
e 88 110
e 88 112
e 88 114
e 88 116
e 88 117
e 88 120
e 88 124
e 88 129
e 88 134
e 88 136
e 88 137
e 88 140
e 88 141
e 88 142
e 88 147
e 88 148
e 88 149
e 89 91
e 89 92
e 89 96
e 89 106
e 89 109
e 89 116
e 89 117
e 89 121
e 89 125
e 89 131
e 89 134
e 89 135
e 89 142
e 89 144
e 90 95
e 90 99
e 90 100
e 90 102
e 90 104
e 90 105
e 90 108
e 90 111
e 90 112
e 90 113
e 90 115
e 90 116
e 90 118
e 90 123
e 90 126
e 90 127
e 90 128
e 90 138
e 90 141
e 90 148
e 90 150
e 91 95
e 91 96
e 91 97
e 91 100
e 91 102
e 91 104
e 91 107
e 91 109
e 91 116
e 91 117
e 91 125
e 91 126
e 91 127
e 91 130
e 91 135
e 91 136
e 91 137
e 91 143
e 91 145
e 92 95
e 92 100
e 92 104
e 92 106
e 92 118
e 92 121
e 92 122
e 92 123
e 92 124
e 92 125
e 92 126
e 92 129
e 92 130
e 92 132
e 92 137
e 92 138
e 92 143
e 92 146
e 93 100
e 93 107
e 93 110
e 93 113
e 93 119
e 93 122
e 93 124
e 93 126
e 93 130
e 93 138
e 93 139
e 93 142
e 93 143
e 93 144
e 93 145
e 93 146
e 93 147
e 93 148
e 94 96
e 94 99
e 94 100
e 94 102
e 94 108
e 94 110
e 94 111
e 94 114
e 94 117
e 94 121
e 94 123
e 94 129
e 94 130
e 94 137
e 94 144
e 94 147
e 94 150
e 95 97
e 95 101
e 95 102
e 95 103
e 95 107
e 95 111
e 95 115
e 95 116
e 95 118
e 95 122
e 95 127
e 95 128
e 95 130
e 95 131
e 95 133
e 95 136
e 95 138
e 95 141
e 95 144
e 95 146
e 96 97
e 96 103
e 96 106
e 96 108
e 96 109
e 96 111
e 96 119
e 96 121
e 96 123
e 96 126
e 96 129
e 96 130
e 96 133
e 96 138
e 96 139
e 96 140
e 96 145
e 96 149
e 97 101
e 97 104
e 97 109
e 97 110
e 97 112
e 97 114
e 97 115
e 97 117
e 97 123
e 97 125
e 97 126
e 97 127
e 97 132
e 97 133
e 97 135
e 97 141
e 97 146
e 98 104
e 98 106
e 98 109
e 98 110
e 98 114
e 98 115
e 98 119
e 98 120
e 98 121
e 98 123
e 98 124
e 98 125
e 98 126
e 98 127
e 98 131
e 98 133
e 98 134
e 98 135
e 98 142
e 98 144
e 98 145
e 99 100
e 99 104
e 99 105
e 99 108
e 99 109
e 99 110
e 99 112
e 99 114
e 99 120
e 99 121
e 99 128
e 99 129
e 99 131
e 99 136
e 99 137
e 99 139
e 99 140
e 99 142
e 99 144
e 99 147
e 100 101
e 100 105
e 100 106
e 100 109
e 100 111
e 100 113
e 100 121
e 100 122
e 100 128
e 100 129
e 100 132
e 100 134
e 100 143
e 100 149
e 101 109
e 101 112
e 101 117
e 101 124
e 101 125
e 101 128
e 101 129
e 101 131
e 101 132
e 101 135
e 101 136
e 101 146
e 101 148
e 102 103
e 102 105
e 102 106
e 102 108
e 102 109
e 102 112
e 102 113
e 102 118
e 102 121
e 102 122
e 102 125
e 102 128
e 102 129
e 102 130
e 102 131
e 102 137
e 102 143
e 102 149
e 102 150
e 103 105
e 103 111
e 103 115
e 103 116
e 103 118
e 103 120
e 103 122
e 103 126
e 103 128
e 103 131
e 103 133
e 103 134
e 103 135
e 103 139
e 103 140
e 103 143
e 103 144
e 103 145
e 103 148
e 104 105
e 104 108
e 104 112
e 104 113
e 104 114
e 104 126
e 104 128
e 104 132
e 104 134
e 104 135
e 104 136
e 104 140
e 104 141
e 104 142
e 104 148
e 105 109
e 105 110
e 105 114
e 105 117
e 105 122
e 105 123
e 105 126
e 105 129
e 105 130
e 105 143
e 105 148
e 105 149
e 106 107
e 106 112
e 106 114
e 106 119
e 106 122
e 106 125
e 106 139
e 106 142
e 106 143
e 107 108
e 107 109
e 107 110
e 107 113
e 107 114
e 107 120
e 107 124
e 107 125
e 107 139
e 107 140
e 107 144
e 107 148
e 108 111
e 108 112
e 108 115
e 108 117
e 108 120
e 108 127
e 108 130
e 108 132
e 108 136
e 108 142
e 109 112
e 109 114
e 109 115
e 109 121
e 109 125
e 109 128
e 109 130
e 109 134
e 109 136
e 109 144
e 109 147
e 109 148
e 110 114
e 110 119
e 110 120
e 110 121
e 110 125
e 110 128
e 110 129
e 110 130
e 110 131
e 110 136
e 110 141
e 110 142
e 110 143
e 110 146
e 111 112
e 111 113
e 111 117
e 111 119
e 111 121
e 111 122
e 111 124
e 111 133
e 111 140
e 111 142
e 111 144
e 111 150
e 112 118
e 112 121
e 112 124
e 112 125
e 112 127
e 112 140
e 112 143
e 112 144
e 112 145
e 112 146
e 112 149
e 113 118
e 113 121
e 113 124
e 113 127
e 113 128
e 113 135
e 113 136
e 113 147
e 113 148
e 114 121
e 114 123
e 114 128
e 114 129
e 114 132
e 114 134
e 114 139
e 114 140
e 114 141
e 115 117
e 115 123
e 115 124
e 115 125
e 115 126
e 115 128
e 115 129
e 115 134
e 115 137
e 115 142
e 115 143
e 115 147
e 116 120
e 116 121
e 116 126
e 116 128
e 116 129
e 116 130
e 116 131
e 116 133
e 116 135
e 116 141
e 116 147
e 116 150
e 117 119
e 117 123
e 117 125
e 117 129
e 117 130
e 117 132
e 117 134
e 117 135
e 117 136
e 117 137
e 117 143
e 117 144
e 117 145
e 117 146
e 117 149
e 118 123
e 118 126
e 118 127
e 118 129
e 118 131
e 118 134
e 118 138
e 118 141
e 118 144
e 118 145
e 119 122
e 119 123
e 119 125
e 119 126
e 119 130
e 119 137
e 119 144
e 119 147
e 119 150
e 120 121
e 120 124
e 120 125
e 120 126
e 120 128
e 120 129
e 120 132
e 120 148
e 120 149
e 121 122
e 121 136
e 121 137
e 121 138
e 121 144
e 121 147
e 122 132
e 122 133
e 122 136
e 122 139
e 122 141
e 122 144
e 122 146
e 122 147
e 122 150
e 123 124
e 123 125
e 123 129
e 123 135
e 123 136
e 123 138
e 123 142
e 123 143
e 124 126
e 124 133
e 124 137
e 124 138
e 124 144
e 124 145
e 124 148
e 124 149
e 125 127
e 125 134
e 125 135
e 125 137
e 125 138
e 125 145
e 125 149
e 125 150
e 126 132
e 126 144
e 126 145
e 127 128
e 127 129
e 127 130
e 127 132
e 127 135
e 127 140
e 127 141
e 127 143
e 127 146
e 127 147
e 127 150
e 128 132
e 128 133
e 128 135
e 128 136
e 128 140
e 128 141
e 128 143
e 128 144
e 128 148
e 129 130
e 129 133
e 129 135
e 129 137
e 129 140
e 129 143
e 130 133
e 130 135
e 130 137
e 130 138
e 130 139
e 130 140
e 130 141
e 130 145
e 131 136
e 131 143
e 131 144
e 131 149
e 132 133
e 132 135
e 132 136
e 132 144
e 132 146
e 132 147
e 133 134
e 133 138
e 133 142
e 133 148
e 134 136
e 134 137
e 134 140
e 134 141
e 134 144
e 134 146
e 135 136
e 135 137
e 135 142
e 135 143
e 135 144
e 135 145
e 135 150
e 136 137
e 136 141
e 136 144
e 136 146
e 136 149
e 137 145
e 138 140
e 138 142
e 138 147
e 138 150
e 139 141
e 139 145
e 139 146
e 139 147
e 139 148
e 139 150
e 141 142
e 141 149
e 142 146
e 142 149
e 143 145
e 143 146
e 143 149
e 143 150
e 144 149
e 145 146
e 146 147
e 146 149
e 148 149
e 149 150
